(set-info :source |printed by MathSAT|)
(declare-fun call_mesi.ite27 () Int)
(declare-fun call_mesi.ite4 () Int)
(declare-fun call_mesi.invalid_me () Int)
(declare-fun call_Sofar.Sofar () Bool)
(declare-fun call_mesi.ite18 () Int)
(declare-fun call_mesi.exclusive_me () Int)
(declare-fun param_etat_me1 () Bool)
(declare-fun param_etat_me2 () Bool)
(declare-fun call_mesi.garde_me4 () Bool)
(declare-fun param_etat_me3 () Bool)
(declare-fun call_mesi.flby3 () Int)
(declare-fun call_mesi.ite7 () Int)
(declare-fun invalid_me () Int)
(declare-fun flby () Bool)
(declare-fun call_mesi.ite15 () Int)
(declare-fun call_mesi.ite10 () Int)
(declare-fun call_mesi.ite28 () Int)
(declare-fun call_mesi.ite11 () Int)
(declare-fun call_mesi.flby2 () Int)
(declare-fun call_mesi.ite () Int)
(declare-fun call_mesi.ite29 () Int)
(declare-fun call_mesi.ite32 () Int)
(declare-fun call_mesi.ite19 () Int)
(declare-fun call_mesi.ite17 () Int)
(declare-fun call_mesi.ite6 () Int)
(declare-fun call_mesi.ite30 () Int)
(declare-fun shared_me () Int)
(declare-fun call_mesi.ite14 () Int)
(declare-fun call_Sofar.flby () Bool)
(declare-fun call_mesi.ite12 () Int)
(declare-fun call_mesi.ite20 () Int)
(declare-fun exclusive_me () Int)
(declare-fun call_mesi.ite22 () Int)
(declare-fun call_mesi.ite31 () Int)
(declare-fun call_mesi.flby () Int)
(declare-fun call_mesi.shared_me () Int)
(declare-fun call_mesi.flby4 () Int)
(declare-fun call_mesi.modified_me () Int)
(declare-fun call_mesi.ite24 () Int)
(declare-fun call_mesi.garde_me3 () Bool)
(declare-fun call_mesi.ite21 () Int)
(declare-fun call_mesi.ite5 () Int)
(declare-fun call_mesi.ite13 () Int)
(declare-fun param_etat_me4 () Bool)
(declare-fun env () Bool)
(declare-fun call_mesi.ite8 () Int)
(declare-fun modified_me () Int)
(declare-fun call_mesi.ite23 () Int)
(declare-fun call_mesi.ite16 () Int)
(declare-fun call_mesi.garde_me1 () Bool)
(declare-fun call_mesi.ite9 () Int)
(declare-fun call_excludes4.excludes () Bool)
(declare-fun call_mesi.ite25 () Int)
(declare-fun call_mesi.ite26 () Int)
(declare-fun call_mesi.ite3 () Int)
(declare-fun _OK_ () Bool)
(declare-fun call_mesi.ite2 () Int)
(define-fun .def_820 () Bool (= call_Sofar.flby call_Sofar.Sofar))
(define-fun .def_815 () Bool (and param_etat_me4 param_etat_me3))
(define-fun .def_810 () Bool (and param_etat_me1 param_etat_me2))
(define-fun .def_809 () Bool (and param_etat_me3 param_etat_me1))
(define-fun .def_811 () Bool (or .def_809 .def_810))
(define-fun .def_808 () Bool (and param_etat_me4 param_etat_me1))
(define-fun .def_812 () Bool (or .def_808 .def_811))
(define-fun .def_807 () Bool (and param_etat_me3 param_etat_me2))
(define-fun .def_813 () Bool (or .def_807 .def_812))
(define-fun .def_806 () Bool (and param_etat_me4 param_etat_me2))
(define-fun .def_814 () Bool (or .def_806 .def_813))
(define-fun .def_816 () Bool (or .def_814 .def_815))
(define-fun .def_817 () Bool (not .def_816))
(define-fun .def_818 () Bool (= call_excludes4.excludes .def_817))
(define-fun .def_804 () Bool (= call_mesi.flby4 call_mesi.invalid_me))
(define-fun .def_802 () Bool (= call_mesi.flby3 call_mesi.shared_me))
(define-fun .def_800 () Bool (= call_mesi.flby2 call_mesi.exclusive_me))
(define-fun .def_798 () Bool (= call_mesi.flby call_mesi.modified_me))
(define-fun .def_794 () Bool (= call_mesi.ite30 call_mesi.ite31))
(define-fun .def_795 () Bool (or param_etat_me2 .def_794))
(define-fun .def_791 () Bool (= call_mesi.ite31 call_mesi.ite26))
(define-fun .def_773 () Bool (not param_etat_me2))
(define-fun .def_792 () Bool (or .def_773 .def_791))
(define-fun .def_787 () Bool (= call_mesi.ite22 call_mesi.ite23))
(define-fun .def_788 () Bool (or param_etat_me2 .def_787))
(define-fun .def_784 () Bool (= call_mesi.ite23 call_mesi.ite18))
(define-fun .def_785 () Bool (or .def_773 .def_784))
(define-fun .def_780 () Bool (= call_mesi.ite14 call_mesi.ite15))
(define-fun .def_781 () Bool (or param_etat_me2 .def_780))
(define-fun .def_777 () Bool (= call_mesi.ite15 call_mesi.ite10))
(define-fun .def_778 () Bool (or .def_773 .def_777))
(define-fun .def_772 () Bool (= call_mesi.ite7 call_mesi.ite2))
(define-fun .def_774 () Bool (or .def_772 .def_773))
(define-fun .def_768 () Bool (= call_mesi.ite6 call_mesi.ite7))
(define-fun .def_770 () Bool (or .def_768 param_etat_me2))
(define-fun .def_775 () Bool (and .def_770 .def_774))
(define-fun .def_779 () Bool (and .def_775 .def_778))
(define-fun .def_782 () Bool (and .def_779 .def_781))
(define-fun .def_786 () Bool (and .def_782 .def_785))
(define-fun .def_789 () Bool (and .def_786 .def_788))
(define-fun .def_793 () Bool (and .def_789 .def_792))
(define-fun .def_796 () Bool (and .def_793 .def_795))
(define-fun .def_764 () Bool (= call_mesi.ite32 call_mesi.ite31))
(define-fun .def_765 () Bool (or param_etat_me1 .def_764))
(define-fun .def_760 () Bool (= call_mesi.ite25 call_mesi.ite32))
(define-fun .def_738 () Bool (not param_etat_me1))
(define-fun .def_761 () Bool (or .def_738 .def_760))
(define-fun .def_755 () Bool (= call_mesi.ite24 call_mesi.ite23))
(define-fun .def_756 () Bool (or param_etat_me1 .def_755))
(define-fun .def_751 () Bool (= call_mesi.ite17 call_mesi.ite24))
(define-fun .def_752 () Bool (or .def_738 .def_751))
(define-fun .def_746 () Bool (= call_mesi.ite16 call_mesi.ite15))
(define-fun .def_747 () Bool (or param_etat_me1 .def_746))
(define-fun .def_742 () Bool (= call_mesi.ite9 call_mesi.ite16))
(define-fun .def_743 () Bool (or .def_738 .def_742))
(define-fun .def_737 () Bool (= call_mesi.ite call_mesi.ite8))
(define-fun .def_739 () Bool (or .def_737 .def_738))
(define-fun .def_734 () Bool (= call_mesi.ite8 call_mesi.ite7))
(define-fun .def_736 () Bool (or .def_734 param_etat_me1))
(define-fun .def_740 () Bool (and .def_736 .def_739))
(define-fun .def_744 () Bool (and .def_740 .def_743))
(define-fun .def_748 () Bool (and .def_744 .def_747))
(define-fun .def_753 () Bool (and .def_748 .def_752))
(define-fun .def_757 () Bool (and .def_753 .def_756))
(define-fun .def_762 () Bool (and .def_757 .def_761))
(define-fun .def_766 () Bool (and .def_762 .def_765))
(define-fun .def_730 () Bool (= env call_Sofar.Sofar))
(define-fun .def_727 () Bool (= invalid_me call_mesi.invalid_me))
(define-fun .def_723 () Bool (= shared_me call_mesi.shared_me))
(define-fun .def_719 () Bool (= exclusive_me call_mesi.exclusive_me))
(define-fun .def_715 () Bool (= modified_me call_mesi.modified_me))
(define-fun .def_709 () Bool (= call_mesi.ite29 call_mesi.ite30))
(define-fun .def_710 () Bool (or param_etat_me3 .def_709))
(define-fun .def_706 () Bool (= call_mesi.ite27 call_mesi.ite30))
(define-fun .def_687 () Bool (not param_etat_me3))
(define-fun .def_707 () Bool (or .def_687 .def_706))
(define-fun .def_701 () Bool (= call_mesi.ite21 call_mesi.ite22))
(define-fun .def_702 () Bool (or param_etat_me3 .def_701))
(define-fun .def_698 () Bool (= call_mesi.ite19 call_mesi.ite22))
(define-fun .def_699 () Bool (or .def_687 .def_698))
(define-fun .def_694 () Bool (= call_mesi.ite13 call_mesi.ite14))
(define-fun .def_695 () Bool (or param_etat_me3 .def_694))
(define-fun .def_691 () Bool (= call_mesi.ite11 call_mesi.ite14))
(define-fun .def_692 () Bool (or .def_687 .def_691))
(define-fun .def_686 () Bool (= call_mesi.ite3 call_mesi.ite6))
(define-fun .def_688 () Bool (or .def_686 .def_687))
(define-fun .def_683 () Bool (= call_mesi.ite5 call_mesi.ite6))
(define-fun .def_685 () Bool (or .def_683 param_etat_me3))
(define-fun .def_689 () Bool (and .def_685 .def_688))
(define-fun .def_693 () Bool (and .def_689 .def_692))
(define-fun .def_696 () Bool (and .def_693 .def_695))
(define-fun .def_700 () Bool (and .def_696 .def_699))
(define-fun .def_703 () Bool (and .def_700 .def_702))
(define-fun .def_708 () Bool (and .def_703 .def_707))
(define-fun .def_711 () Bool (and .def_708 .def_710))
(define-fun .def_679 () Bool (not env))
(define-fun .def_680 () Bool (or flby .def_679))
(define-fun .def_681 () Bool (= _OK_ .def_680))
(define-fun .def_712 () Bool (and .def_681 .def_711))
(define-fun .def_716 () Bool (and .def_712 .def_715))
(define-fun .def_720 () Bool (and .def_716 .def_719))
(define-fun .def_724 () Bool (and .def_720 .def_723))
(define-fun .def_728 () Bool (and .def_724 .def_727))
(define-fun .def_731 () Bool (and .def_728 .def_730))
(define-fun .def_767 () Bool (and .def_731 .def_766))
(define-fun .def_797 () Bool (and .def_767 .def_796))
(define-fun .def_799 () Bool (and .def_797 .def_798))
(define-fun .def_801 () Bool (and .def_799 .def_800))
(define-fun .def_803 () Bool (and .def_801 .def_802))
(define-fun .def_805 () Bool (and .def_803 .def_804))
(define-fun .def_819 () Bool (and .def_805 .def_818))
(define-fun .def_821 () Bool (and .def_819 .def_820))
(define-fun .def_675 () Bool (= call_excludes4.excludes call_Sofar.flby))
(define-fun .def_671 () Bool (= call_mesi.flby4 3))
(define-fun .def_668 () Bool (= call_mesi.flby3 0))
(define-fun .def_665 () Bool (= call_mesi.flby2 0))
(define-fun .def_662 () Bool (= call_mesi.flby 0))
(define-fun .def_657 () Bool (= call_mesi.ite20 0))
(define-fun .def_652 () Bool (not call_mesi.garde_me4))
(define-fun .def_658 () Bool (or .def_652 .def_657))
(define-fun .def_654 () Bool (= call_mesi.ite4 0))
(define-fun .def_655 () Bool (or .def_652 .def_654))
(define-fun .def_650 () Bool (= call_mesi.ite12 1))
(define-fun .def_653 () Bool (or .def_650 .def_652))
(define-fun .def_656 () Bool (and .def_653 .def_655))
(define-fun .def_659 () Bool (and .def_656 .def_658))
(define-fun .def_646 () Bool (= call_mesi.ite19 0))
(define-fun .def_639 () Bool (not call_mesi.garde_me3))
(define-fun .def_647 () Bool (or .def_639 .def_646))
(define-fun .def_642 () Bool (= call_mesi.ite3 0))
(define-fun .def_643 () Bool (or .def_639 .def_642))
(define-fun .def_637 () Bool (= call_mesi.ite11 1))
(define-fun .def_640 () Bool (or .def_637 .def_639))
(define-fun .def_644 () Bool (and .def_640 .def_643))
(define-fun .def_648 () Bool (and .def_644 .def_647))
(define-fun .def_632 () Bool (= call_mesi.ite 0))
(define-fun .def_629 () Bool (not call_mesi.garde_me1))
(define-fun .def_633 () Bool (or .def_629 .def_632))
(define-fun .def_627 () Bool (= call_mesi.ite9 0))
(define-fun .def_630 () Bool (or .def_627 .def_629))
(define-fun .def_634 () Bool (and .def_630 .def_633))
(define-fun .def_621 () Bool (= call_mesi.ite28 call_mesi.ite29))
(define-fun .def_607 () Bool (not param_etat_me4))
(define-fun .def_622 () Bool (or .def_607 .def_621))
(define-fun .def_616 () Bool (= call_mesi.ite20 call_mesi.ite21))
(define-fun .def_617 () Bool (or .def_607 .def_616))
(define-fun .def_611 () Bool (= call_mesi.ite4 call_mesi.ite5))
(define-fun .def_612 () Bool (or .def_607 .def_611))
(define-fun .def_605 () Bool (= call_mesi.ite12 call_mesi.ite13))
(define-fun .def_608 () Bool (or .def_605 .def_607))
(define-fun .def_613 () Bool (and .def_608 .def_612))
(define-fun .def_618 () Bool (and .def_613 .def_617))
(define-fun .def_623 () Bool (and .def_618 .def_622))
(define-fun .def_625 () Bool (and .def_623 flby))
(define-fun .def_635 () Bool (and .def_625 .def_634))
(define-fun .def_649 () Bool (and .def_635 .def_648))
(define-fun .def_660 () Bool (and .def_649 .def_659))
(define-fun .def_663 () Bool (and .def_660 .def_662))
(define-fun .def_666 () Bool (and .def_663 .def_665))
(define-fun .def_669 () Bool (and .def_666 .def_668))
(define-fun .def_672 () Bool (and .def_669 .def_671))
(define-fun .def_676 () Bool (and .def_672 .def_675))
(define-fun .def_822 () Bool (and .def_676 .def_821))
(assert .def_822)
